50
17434

243 689
902 35
727 833
717 936
152 482
825 230
929 883
284 588
254 501
733 873
433 243
271 23
33 902
521 957
14 594
828 27
544 796
396 783
418 134
384 840
643 656
441 231
349 73
91 101
958 597
33 978
493 536
205 452
916 850
830 807
636 33
313 317
629 739
299 256
459 498
420 955
137 333
456 632
996 818
579 117
975 609
46 378
13 685
800 961
514 758
648 39
975 69
223 357
179 742
108 105
